cvc5/4284.corecstrs.readable_medium.smt2
(set-info :smt-lib-version 2.6)
(set-logic QF_SLIA)
(set-info :source |
Generated by: Andrew Reynolds
Generated on: 2018-04-25
Generator: Kudzu, converted to v2.6 by CVC4
Application: Symbolic Execution of Javascript
Target solver: Kaluza
Publications: "A symbolic execution framework for JavaScript" by P. Saxena, D. Akhawe, S. Hanna, F. Mao, S. McCamant, and D. Song, 2010.
|)
(set-info :license "https://creativecommons.org/licenses/by/4.0/")
(set-info :category "industrial")
(set-info :status unknown)



(declare-fun T_1 () Bool)
(declare-fun T_2 () Bool)
(declare-fun T_3 () Bool)
(declare-fun var_0xINPUT_65884 () String)
(declare-const rest_3_1792 String)
(declare-const rest_4_7362 String)
(declare-const rest_5_4790 String)
(assert (= T_1 (not (= "" var_0xINPUT_65884))))
(assert T_1)
(assert (= T_2 (not (= "" var_0xINPUT_65884))))
(assert T_2)
(assert (= T_3 (= var_0xINPUT_65884 "Example:")))
(assert T_3)
(assert (= (str.split_rest var_0xINPUT_65884 "##" 1) "8zhirnhtw0oxg"))
(assert (= (str.split_rest var_0xINPUT_65884 "##" 3) "dx2h4ze18"))
(assert (= (str.split_rest var_0xINPUT_65884 "##" 2) "h3rcztzdmadew"))
(assert (= (str.split_rest var_0xINPUT_65884 "##" 0) rest_3_1792))
(assert (= (str.split_rest var_0xINPUT_65884 "##" 3) rest_4_7362))
(assert (= (str.split_rest var_0xINPUT_65884 "##" 2) rest_5_4790))
(check-sat)

(get-model)
