cvc5/4284.corecstrs.readable_medium.txt
(define-fun T_1 () Bool true)
(define-fun T_2 () Bool true)
(define-fun T_3 () Bool true)
(define-fun var_0xINPUT_65884 () String "Example:")
(define-fun rest_3_1792 () String "h3rcztzdmadew")
(define-fun rest_4_7362 () String "dx2h4ze18")
(define-fun rest_5_4790 () String "h3rcztzdmadew")